
Gurobi 6.0.4 (win64) logging started 06/18/15 15:59:09

Read LP format model from file C:\MT\repository\VRPTWMS\instances\mip\freight\N10-C_DV10-C_SV50_F22_4_No_1.lp
Reading time = 0.01 seconds
(null): 621 rows, 288 columns, 2553 nonzeros
Optimize a model with 621 rows, 288 columns and 2553 nonzeros
Model has 1000 quadratic constraints
Coefficient statistics:
  Matrix range    [1e+00, 1e+06]
  Objective range [2e+04, 1e+07]
  Bounds range    [1e+00, 1e+06]
  RHS range       [1e+00, 1e+06]
Presolve removed 59 rows and 32 columns
Presolve time: 0.07s
Presolved: 2374 rows, 1162 columns, 12566 nonzeros
Variable types: 906 continuous, 256 integer (214 binary)
Found heuristic solution: objective 1.046066e+08

Root relaxation: objective 1.464948e+06, 162 iterations, 0.00 seconds

    Nodes    |    Current Node    |     Objective Bounds      |     Work
 Expl Unexpl |  Obj  Depth IntInf | Incumbent    BestBd   Gap | It/Node Time

     0     0 1464947.54    0   51 1.0461e+08 1464947.54  98.6%     -    0s
     0     0 2882542.38    0   63 1.0461e+08 2882542.38  97.2%     -    0s
H    0     0                    9.447800e+07 2882542.38  96.9%     -    0s
H    0     0                    5.341440e+07 2882542.38  94.6%     -    0s
     0     0 4790587.50    0   46 5.3414e+07 4790587.50  91.0%     -    0s
     0     0 4812687.50    0   45 5.3414e+07 4812687.50  91.0%     -    0s
H    0     0                    5.304270e+07 4812687.50  90.9%     -    0s
     0     0 4945248.78    0   60 5.3043e+07 4945248.78  90.7%     -    0s
     0     0 4945248.78    0   60 5.3043e+07 4945248.78  90.7%     -    0s
     0     0 4945248.78    0   59 5.3043e+07 4945248.78  90.7%     -    0s
     0     2 4945248.78    0   59 5.3043e+07 4945248.78  90.7%     -    0s
*  142    93              21    5.296420e+07 1.1880e+07  77.6%  17.5    0s
H  174   112                    4.272120e+07 1.1880e+07  72.2%  19.8    0s
*  620   280              13    4.259950e+07 1.3537e+07  68.2%  17.9    0s
*  637   288               8    4.259100e+07 1.3555e+07  68.2%  17.8    0s
  4260   488 2.7840e+07   33   33 4.2591e+07 2.5146e+07  41.0%  15.3    5s

Cutting planes:
  Implied bound: 2
  Clique: 3
  MIR: 2
  GUB cover: 7

Explored 5775 nodes (85959 simplex iterations) in 7.02 seconds
Thread count was 2 (of 4 available processors)

Optimal solution found (tolerance 1.00e-04)
Best objective 4.259100000000e+07, best bound 4.259100000000e+07, gap 0.0%
k_c1	40000.0
k_c10	80000.0
k_c2	100000.0
k_c3	90000.0
k_c4	60000.00000000009
k_c5	100000.00000000029
k_c6	60000.0000000003
k_c7	70000.0
k_c8	100000.0
k_c9	50000.0
k_dN	-0.0
o_1	-0.0
o_10	-0.0
o_2	-0.0
o_3	-0.0
o_4	-0.0
o_5	0.0
o_6	-0.0
o_7	-0.0
o_8	-0.0
o_9	-0.0
p_1	0.0
p_10	0.0
p_2	0.0
p_3	0.0
p_4	0.0
p_5	0.0
p_6	0.0
p_7	0.0
p_8	0.0
p_9	-0.0
phi_c1	11701.0
phi_c10	34259.00000000005
phi_c2	213410.0
phi_c3	23897.0
phi_c4	4730.000000000058
phi_c5	202867.0
phi_c6	18505.00000000006
phi_c7	205931.0
phi_c8	35757.99999999996
phi_c9	18598.00000000006
phi_d0	220000.0
phi_dN	-0.0
tauD_c1	200000.00000000003
tauD_c10	250000.00000000003
tauD_c2	24625.0
tauD_c3	85150.0
tauD_c4	450000.0
tauD_c5	100000.0
tauD_c6	650000.0
tauD_c7	125000.00000000003
tauD_c8	174400.0000000001
tauD_c9	348525.0
tauD_d0	-0.0
tauD_dN	1000000.0
tauS_c1	-0.0
tauS_c10	-0.0
tauS_c2	-0.0
tauS_c3	-0.0
tauS_c4	-0.0
tauS_c5	-0.0
tauS_c6	-0.0
tauS_c7	-0.0
tauS_c8	-0.0
tauS_c9	-0.0
tauS_d0	-0.0
tauS_dN	-0.0
x_c10_c9	1.0
x_c1_dN	1.0
x_c2_c7	1.0
x_c3_c6	0.999999999999997
x_c4_dN	1.0
x_c5_c4	0.9999999999999974
x_c6_dN	1.0
x_c7_c1	1.0
x_c8_c10	0.9999999999999998
x_c9_dN	1.0
x_d0_c2	1.0
x_d0_c3	1.0
x_d0_c5	1.0
x_d0_c8	1.0
